
Gurobi 9.1.2 (linux64) logging started Wed Nov 24 10:26:23 2021

Changed value of parameter LogFile to lemke_square_v-(3, 6).log-s20-l10.log
   Prev:   Default: 
Changed value of parameter Threads to 32
   Prev: 0  Min: 0  Max: 1024  Default: 0
Changed value of parameter TimeLimit to 3600.0
   Prev: inf  Min: 0.0  Max: inf  Default: inf
Changed value of parameter MIPGap to 0.4
   Prev: 0.0001  Min: 0.0  Max: inf  Default: 0.0001
Warning: variable name "X[(7, 4),(7, 3)]" has a space
Warning: constraint name "flow-constr-t0-v(3, 0)" has a space
Warning: to let Gurobi read it back, use rlp format
Gurobi Optimizer version 9.1.2 build v9.1.2rc0 (linux64)
Thread count: 16 physical cores, 32 logical processors, using up to 32 threads
Optimize a model with 5993 rows, 5440 columns and 20620 nonzeros
Model fingerprint: 0x181174d3
Variable types: 0 continuous, 5440 integer (4800 binary)
Coefficient statistics:
  Matrix range     [1e+00, 1e+03]
  Objective range  [1e-01, 1e-01]
  Bounds range     [1e+00, 5e+02]
  RHS range        [1e+00, 1e+03]
Presolve removed 617 rows and 660 columns
Presolve time: 0.04s
Presolved: 5376 rows, 4780 columns, 17830 nonzeros
Variable types: 0 continuous, 4780 integer (4140 binary)

Root relaxation: objective 6.400000e+01, 126 iterations, 0.00 seconds

    Nodes    |    Current Node    |     Objective Bounds      |     Work
 Expl Unexpl |  Obj  Depth IntInf | Incumbent    BestBd   Gap | It/Node Time

     0     0   64.00000    0   42          -   64.00000      -     -    0s
     0     0   64.00000    0  109          -   64.00000      -     -    0s
     0     0   64.00000    0  109          -   64.00000      -     -    0s
     0     0   64.00000    0   50          -   64.00000      -     -    0s
     0     0   64.00000    0   54          -   64.00000      -     -    0s
     0     0   64.00000    0   56          -   64.00000      -     -    0s
H    0     0                    4178.0000000   64.00000  98.5%     -    0s
     0     0   64.00000    0   56 4178.00000   64.00000  98.5%     -    0s
H    0     0                     104.9000000   64.00000  39.0%     -    0s

Cutting planes:
  Gomory: 2
  Cover: 60
  Implied bound: 76
  Clique: 13
  MIR: 25
  Flow cover: 16
  RLT: 5
  Relax-and-lift: 16

Explored 1 nodes (2180 simplex iterations) in 0.61 seconds
Thread count was 32 (of 32 available processors)

Solution count 2: 104.9 4178 

Optimal solution found (tolerance 4.00e-01)
Best objective 1.049000000000e+02, best bound 6.400000000000e+01, gap 38.9895%

Gurobi 9.1.2 (linux64) logging started Wed Nov 24 10:31:22 2021

Changed value of parameter LogFile to lemke_square_v-(3, 6).log-s20-l10.log
   Prev:   Default: 
Changed value of parameter Threads to 32
   Prev: 0  Min: 0  Max: 1024  Default: 0
Changed value of parameter TimeLimit to 3600.0
   Prev: inf  Min: 0.0  Max: inf  Default: inf
Changed value of parameter MIPGap to 0.4
   Prev: 0.0001  Min: 0.0  Max: inf  Default: 0.0001
Warning: variable name "X[(7, 4),(7, 3)]" has a space
Warning: constraint name "flow-constr-t0-v(3, 0)" has a space
Warning: to let Gurobi read it back, use rlp format
Gurobi Optimizer version 9.1.2 build v9.1.2rc0 (linux64)
Thread count: 16 physical cores, 32 logical processors, using up to 32 threads
Optimize a model with 5993 rows, 5440 columns and 20620 nonzeros
Model fingerprint: 0x181174d3
Variable types: 0 continuous, 5440 integer (4800 binary)
Coefficient statistics:
  Matrix range     [1e+00, 1e+03]
  Objective range  [1e-01, 1e-01]
  Bounds range     [1e+00, 5e+02]
  RHS range        [1e+00, 1e+03]
Presolve removed 617 rows and 660 columns
Presolve time: 0.03s
Presolved: 5376 rows, 4780 columns, 17830 nonzeros
Variable types: 0 continuous, 4780 integer (4140 binary)

Root relaxation: objective 6.400000e+01, 126 iterations, 0.00 seconds

    Nodes    |    Current Node    |     Objective Bounds      |     Work
 Expl Unexpl |  Obj  Depth IntInf | Incumbent    BestBd   Gap | It/Node Time

     0     0   64.00000    0   42          -   64.00000      -     -    0s
     0     0   64.00000    0  109          -   64.00000      -     -    0s
     0     0   64.00000    0  109          -   64.00000      -     -    0s
     0     0   64.00000    0   50          -   64.00000      -     -    0s
     0     0   64.00000    0   54          -   64.00000      -     -    0s
     0     0   64.00000    0   56          -   64.00000      -     -    0s
H    0     0                    4178.0000000   64.00000  98.5%     -    0s
     0     0   64.00000    0   56 4178.00000   64.00000  98.5%     -    0s
H    0     0                     104.9000000   64.00000  39.0%     -    0s

Cutting planes:
  Gomory: 2
  Cover: 60
  Implied bound: 76
  Clique: 13
  MIR: 25
  Flow cover: 16
  RLT: 5
  Relax-and-lift: 16

Explored 1 nodes (2180 simplex iterations) in 0.61 seconds
Thread count was 32 (of 32 available processors)

Solution count 2: 104.9 4178 

Optimal solution found (tolerance 4.00e-01)
Best objective 1.049000000000e+02, best bound 6.400000000000e+01, gap 38.9895%

Gurobi 9.1.2 (linux64) logging started Wed Nov 24 11:38:32 2021

Changed value of parameter LogFile to lemke_square_v-(3, 6).log-s20-l10.log
   Prev:   Default: 
Changed value of parameter Threads to 32
   Prev: 0  Min: 0  Max: 1024  Default: 0
Changed value of parameter TimeLimit to 3600.0
   Prev: inf  Min: 0.0  Max: inf  Default: inf
Changed value of parameter MIPGap to 0.34
   Prev: 0.0001  Min: 0.0  Max: inf  Default: 0.0001
Warning: variable name "X[(7, 4),(7, 3)]" has a space
Warning: constraint name "flow-constr-t0-v(3, 0)" has a space
Warning: to let Gurobi read it back, use rlp format
Gurobi Optimizer version 9.1.2 build v9.1.2rc0 (linux64)
Thread count: 16 physical cores, 32 logical processors, using up to 32 threads
Optimize a model with 5993 rows, 5440 columns and 20620 nonzeros
Model fingerprint: 0x181174d3
Variable types: 0 continuous, 5440 integer (4800 binary)
Coefficient statistics:
  Matrix range     [1e+00, 1e+03]
  Objective range  [1e-01, 1e-01]
  Bounds range     [1e+00, 5e+02]
  RHS range        [1e+00, 1e+03]
Presolve removed 617 rows and 660 columns
Presolve time: 0.04s
Presolved: 5376 rows, 4780 columns, 17830 nonzeros
Variable types: 0 continuous, 4780 integer (4140 binary)

Root relaxation: objective 6.400000e+01, 126 iterations, 0.00 seconds

    Nodes    |    Current Node    |     Objective Bounds      |     Work
 Expl Unexpl |  Obj  Depth IntInf | Incumbent    BestBd   Gap | It/Node Time

     0     0   64.00000    0   42          -   64.00000      -     -    0s
     0     0   64.00000    0  109          -   64.00000      -     -    0s
     0     0   64.00000    0  109          -   64.00000      -     -    0s
     0     0   64.00000    0   50          -   64.00000      -     -    0s
     0     0   64.00000    0   54          -   64.00000      -     -    0s
     0     0   64.00000    0   56          -   64.00000      -     -    0s
H    0     0                    4178.0000000   64.00000  98.5%     -    0s
     0     0   64.00000    0   56 4178.00000   64.00000  98.5%     -    0s
H    0     0                     104.9000000   64.00000  39.0%     -    0s
     0     2   64.00000    0   56  104.90000   64.00000  39.0%     -    0s
H   31    64                      97.2000000   64.00000  34.2%  61.4    1s
H   32    64                      94.0000000   64.00000  31.9%  61.4    1s
H   36    64                      93.3000000   64.00000  31.4%  60.8    1s
H   37    64                      90.5000000   64.00000  29.3%  60.7    1s
H   44    64                      89.3000000   64.00000  28.3%  60.0    1s

Cutting planes:
  Gomory: 7
  Cover: 136
  Implied bound: 163
  Clique: 13
  MIR: 35
  Flow cover: 18
  RLT: 10
  Relax-and-lift: 28

Explored 63 nodes (5892 simplex iterations) in 1.73 seconds
Thread count was 32 (of 32 available processors)

Solution count 7: 89.3 90.5 93.3 ... 4178

Optimal solution found (tolerance 3.40e-01)
Best objective 8.930000000000e+01, best bound 6.400000000000e+01, gap 28.3315%

Gurobi 9.1.2 (linux64) logging started Wed Nov 24 11:39:37 2021

Changed value of parameter LogFile to lemke_square_v-(3, 6).log-s20-l10.log
   Prev:   Default: 
Changed value of parameter Threads to 32
   Prev: 0  Min: 0  Max: 1024  Default: 0
Changed value of parameter TimeLimit to 3600.0
   Prev: inf  Min: 0.0  Max: inf  Default: inf
Changed value of parameter MIPGap to 0.3
   Prev: 0.0001  Min: 0.0  Max: inf  Default: 0.0001
Warning: variable name "X[(7, 4),(7, 3)]" has a space
Warning: constraint name "flow-constr-t0-v(3, 0)" has a space
Warning: to let Gurobi read it back, use rlp format
Gurobi Optimizer version 9.1.2 build v9.1.2rc0 (linux64)
Thread count: 16 physical cores, 32 logical processors, using up to 32 threads
Optimize a model with 5993 rows, 5440 columns and 20620 nonzeros
Model fingerprint: 0x181174d3
Variable types: 0 continuous, 5440 integer (4800 binary)
Coefficient statistics:
  Matrix range     [1e+00, 1e+03]
  Objective range  [1e-01, 1e-01]
  Bounds range     [1e+00, 5e+02]
  RHS range        [1e+00, 1e+03]
Presolve removed 617 rows and 660 columns
Presolve time: 0.04s
Presolved: 5376 rows, 4780 columns, 17830 nonzeros
Variable types: 0 continuous, 4780 integer (4140 binary)

Root relaxation: objective 6.400000e+01, 126 iterations, 0.01 seconds

    Nodes    |    Current Node    |     Objective Bounds      |     Work
 Expl Unexpl |  Obj  Depth IntInf | Incumbent    BestBd   Gap | It/Node Time

     0     0   64.00000    0   42          -   64.00000      -     -    0s
     0     0   64.00000    0  109          -   64.00000      -     -    0s
     0     0   64.00000    0  109          -   64.00000      -     -    0s
     0     0   64.00000    0   50          -   64.00000      -     -    0s
     0     0   64.00000    0   54          -   64.00000      -     -    0s
     0     0   64.00000    0   56          -   64.00000      -     -    0s
H    0     0                    4178.0000000   64.00000  98.5%     -    0s
     0     0   64.00000    0   56 4178.00000   64.00000  98.5%     -    0s
H    0     0                     104.9000000   64.00000  39.0%     -    0s
     0     2   64.00000    0   56  104.90000   64.00000  39.0%     -    0s
H   31    64                      97.2000000   64.00000  34.2%  61.4    1s
H   32    64                      94.0000000   64.00000  31.9%  61.4    1s
H   36    64                      93.3000000   64.00000  31.4%  60.8    1s
H   37    64                      90.5000000   64.00000  29.3%  60.7    1s
H   44    64                      89.3000000   64.00000  28.3%  60.0    1s

Cutting planes:
  Gomory: 7
  Cover: 136
  Implied bound: 163
  Clique: 13
  MIR: 35
  Flow cover: 18
  RLT: 10
  Relax-and-lift: 28

Explored 63 nodes (5892 simplex iterations) in 1.65 seconds
Thread count was 32 (of 32 available processors)

Solution count 7: 89.3 90.5 93.3 ... 4178

Optimal solution found (tolerance 3.00e-01)
Best objective 8.930000000000e+01, best bound 6.400000000000e+01, gap 28.3315%
